 2 1 1 15 11 12 12 16 7 8 12 10 9 16 8 4 1 9 7 12 4 13 11 12 3 3 6 17 10 11 10 8 17 7 17 6 2 13 4 7 14 8 4 3 6 5 2 11 5 15 2 14 8 6 1 8 16 5 3 16 1 4 4 5 11 1 13 7 5 6 1 2 10 17 3 2 15 13 6 13 4 2 4 7 5 9 3 9 12 9 9 10 14 15 1 10 15 5 14 1